100 55813

 946 806
334 909
885 159
376 815
459 228
137 877
930 216
588 948
995 696
547 15
513 157
296 648
320 261
918 157
572 47
832 324
349 844
840 685
779 130
873 411
229 95
270 627
828 755
798 932
291 292
725 794
165 811
5 283
851 69
379 660
78 11
410 254
574 842
132 872
601 550
749 134
42 712
89 23
402 815
296 346
840 302
295 363
616 396
526 218
800 141
691 616
637 958
422 210
865 985
23 993
575 623
143 616
993 828
665 683
145 460
225 356
503 324
962 133
974 888
821 805
616 840
104 127
947 106
39 604
947 799
198 378
646 905
579 51
391 29
179 462
968 296
554 297
448 726
500 779
15 407
623 769
669 814
289 613
478 405
231 346
923 622
420 420
157 182
550 983
441 825
97 1
997 831
411 950
951 567
289 371
254 936
196 911
598 661
834 431
522 969
517 309
635 137
842 202
865 436
118 313
